
     Program PWSCF v.6.0 (svn rev. 13079) starts on 31Oct2019 at 15:35:18 

     This program is part of the open-source Quantum ESPRESSO suite
     for quantum simulation of materials; please cite
         "P. Giannozzi et al., J. Phys.:Condens. Matter 21 395502 (2009);
          URL http://www.quantum-espresso.org", 
     in publications or presentations arising from this work. More details at
     http://www.quantum-espresso.org/quote

     Parallel version (MPI), running on     1 processors
     Waiting for input...
     Reading input from standard input

     Current dimensions of program PWSCF are:
     Max number of different atomic species (ntypx) = 10
     Max number of k-points (npk) =  40000
     Max angular momentum in pseudopotentials (lmaxx) =  3

     Atomic positions and unit cell read from directory:
     temp/Mgb2.save/

               file Fe.pbe-nd-rrkjus.UPF: wavefunction(s)  4S renormalized
               file Fe.pbe-nd-rrkjus.UPF: wavefunction(s)  4S renormalized

     Subspace diagonalization in iterative solution of the eigenvalue problem:
     a serial algorithm will be used


     G-vector sticks info
     --------------------
     sticks:   dense  smooth     PW     G-vecs:    dense   smooth      PW
     Sum         379     379    121                 6559     6559    1203



     bravais-lattice index     =            4
     lattice parameter (alat)  =       5.8600  a.u.
     unit-cell volume          =     190.4775 (a.u.)^3
     number of atoms/cell      =            3
     number of atomic types    =            2
     number of electrons       =        24.00
     number of Kohn-Sham states=           16
     kinetic-energy cutoff     =      40.0000  Ry
     charge density cutoff     =     160.0000  Ry
     Exchange-correlation      =  SLA  PW   PBE  PBE ( 1  4  3  4 0 0)

     celldm(1)=   5.860000  celldm(2)=   0.000000  celldm(3)=   1.093000
     celldm(4)=   0.000000  celldm(5)=   0.000000  celldm(6)=   0.000000

     crystal axes: (cart. coord. in units of alat)
               a(1) = (   1.000000   0.000000   0.000000 )  
               a(2) = (  -0.500000   0.866025   0.000000 )  
               a(3) = (   0.000000   0.000000   1.093000 )  

     reciprocal axes: (cart. coord. in units 2 pi/alat)
               b(1) = (  1.000000  0.577350 -0.000000 )  
               b(2) = (  0.000000  1.154701  0.000000 )  
               b(3) = (  0.000000 -0.000000  0.914913 )  


     PseudoPot. # 1 for Fe read from file:
     ./Fe.pbe-nd-rrkjus.UPF
     MD5 check sum: 398036227a04b607635f6f5e8dfd8242
     Pseudo is Ultrasoft + core correction, Zval =  8.0
     Generated by new atomic code, or converted to UPF format
     Using radial grid of  957 points,  6 beta functions with: 
                l(1) =   0
                l(2) =   0
                l(3) =   1
                l(4) =   1
                l(5) =   2
                l(6) =   2
     Q(r) pseudized with 0 coefficients 


     PseudoPot. # 2 for Fe read from file:
     ./Fe.pbe-nd-rrkjus.UPF
     MD5 check sum: 398036227a04b607635f6f5e8dfd8242
     Pseudo is Ultrasoft + core correction, Zval =  8.0
     Generated by new atomic code, or converted to UPF format
     Using radial grid of  957 points,  6 beta functions with: 
                l(1) =   0
                l(2) =   0
                l(3) =   1
                l(4) =   1
                l(5) =   2
                l(6) =   2
     Q(r) pseudized with 0 coefficients 


     atomic species   valence    mass     pseudopotential
        Mg             8.00    24.30500     Fe( 1.00)
        B              8.00    10.81000     Fe( 1.00)

     24 Sym. Ops., with inversion, found



   Cartesian axes

     site n.     atom                  positions (alat units)
         1           Mg  tau(   1) = (   0.0000000   0.0000000   0.0000000  )
         2           B   tau(   2) = (   0.0000000   0.5773497   0.5465000  )
         3           B   tau(   3) = (   0.4999995   0.2886748   0.5465000  )

     number of k points=    60  gaussian smearing, width (Ry)=  0.0250
                       cart. coord. in units 2pi/alat
        k(    1) = (   0.0000000   0.0000000   0.0000000), wk =   0.0333333
        k(    2) = (   0.0000000   0.0000000   0.0508285), wk =   0.0333333
        k(    3) = (   0.0000000   0.0000000   0.1016570), wk =   0.0333333
        k(    4) = (   0.0000000   0.0000000   0.1524855), wk =   0.0333333
        k(    5) = (   0.0000000   0.0000000   0.2033140), wk =   0.0333333
        k(    6) = (   0.0000000   0.0000000   0.2541425), wk =   0.0333333
        k(    7) = (   0.0000000   0.0000000   0.3049710), wk =   0.0333333
        k(    8) = (   0.0000000   0.0000000   0.3557995), wk =   0.0333333
        k(    9) = (   0.0000000   0.0000000   0.4066280), wk =   0.0333333
        k(   10) = (   0.0000000   0.0000000   0.4574565), wk =   0.0333333
        k(   11) = (   0.0000000  -0.0524864   0.4574565), wk =   0.0333333
        k(   12) = (   0.0000000  -0.1049728   0.4574565), wk =   0.0333333
        k(   13) = (   0.0000000  -0.1574592   0.4574565), wk =   0.0333333
        k(   14) = (   0.0000000  -0.2099456   0.4574565), wk =   0.0333333
        k(   15) = (   0.0000000  -0.2624319   0.4574565), wk =   0.0333333
        k(   16) = (   0.0000000  -0.3149183   0.4574565), wk =   0.0333333
        k(   17) = (   0.0000000  -0.3674047   0.4574565), wk =   0.0333333
        k(   18) = (   0.0000000  -0.4198911   0.4574565), wk =   0.0333333
        k(   19) = (   0.0000000  -0.4723775   0.4574565), wk =   0.0333333
        k(   20) = (   0.0000000  -0.5248639   0.4574565), wk =   0.0333333
        k(   21) = (   0.0000000  -0.5773503   0.4574565), wk =   0.0333333
        k(   22) = (   0.0555550  -0.5773512   0.4574565), wk =   0.0333333
        k(   23) = (   0.1111100  -0.5773522   0.4574565), wk =   0.0333333
        k(   24) = (   0.1666650  -0.5773532   0.4574565), wk =   0.0333333
        k(   25) = (   0.2222200  -0.5773541   0.4574565), wk =   0.0333333
        k(   26) = (   0.2777750  -0.5773551   0.4574565), wk =   0.0333333
        k(   27) = (   0.3333300  -0.5773560   0.4574565), wk =   0.0333333
        k(   28) = (   0.3611083  -0.5292426   0.4574565), wk =   0.0333333
        k(   29) = (   0.3888867  -0.4811291   0.4574565), wk =   0.0333333
        k(   30) = (   0.4166650  -0.4330156   0.4574565), wk =   0.0333333
        k(   31) = (   0.4444433  -0.3849021   0.4574565), wk =   0.0333333
        k(   32) = (   0.4722217  -0.3367886   0.4574565), wk =   0.0333333
        k(   33) = (   0.5000000  -0.2886751   0.4574565), wk =   0.0333333
        k(   34) = (   0.5277783  -0.2405617   0.4574565), wk =   0.0333333
        k(   35) = (   0.5555567  -0.1924482   0.4574565), wk =   0.0333333
        k(   36) = (   0.5833350  -0.1443347   0.4574565), wk =   0.0333333
        k(   37) = (   0.6111133  -0.0962212   0.4574565), wk =   0.0333333
        k(   38) = (   0.6388917  -0.0481077   0.4574565), wk =   0.0333333
        k(   39) = (   0.6666700   0.0000058   0.4574565), wk =   0.0333333
        k(   40) = (   0.6666700   0.0000058   0.4066280), wk =   0.0333333
        k(   41) = (   0.6666700   0.0000058   0.3557995), wk =   0.0333333
        k(   42) = (   0.6666700   0.0000058   0.3049710), wk =   0.0333333
        k(   43) = (   0.6666700   0.0000058   0.2541425), wk =   0.0333333
        k(   44) = (   0.6666700   0.0000058   0.2033140), wk =   0.0333333
        k(   45) = (   0.6666700   0.0000058   0.1524855), wk =   0.0333333
        k(   46) = (   0.6666700   0.0000058   0.1016570), wk =   0.0333333
        k(   47) = (   0.6666700   0.0000058   0.0508285), wk =   0.0333333
        k(   48) = (   0.6666700   0.0000058   0.0000000), wk =   0.0333333
        k(   49) = (   0.6111142   0.0000053   0.0000000), wk =   0.0333333
        k(   50) = (   0.5555583   0.0000048   0.0000000), wk =   0.0333333
        k(   51) = (   0.5000025   0.0000043   0.0000000), wk =   0.0333333
        k(   52) = (   0.4444467   0.0000038   0.0000000), wk =   0.0333333
        k(   53) = (   0.3888908   0.0000034   0.0000000), wk =   0.0333333
        k(   54) = (   0.3333350   0.0000029   0.0000000), wk =   0.0333333
        k(   55) = (   0.2777792   0.0000024   0.0000000), wk =   0.0333333
        k(   56) = (   0.2222233   0.0000019   0.0000000), wk =   0.0333333
        k(   57) = (   0.1666675   0.0000014   0.0000000), wk =   0.0333333
        k(   58) = (   0.1111117   0.0000010   0.0000000), wk =   0.0333333
        k(   59) = (   0.0555558   0.0000005   0.0000000), wk =   0.0333333
        k(   60) = (   0.0000000   0.0000000   0.0000000), wk =   0.0333333

     Dense  grid:     6559 G-vectors     FFT dimensions: (  24,  24,  25)

     Estimated max dynamical RAM per process >       4.50Mb

     Check: negative/imaginary core charge=   -0.000013    0.000000

     The potential is recalculated from file :
     temp/Mgb2.save/charge-density.dat

     Starting wfc are   18 randomized atomic wfcs

     Band Structure Calculation
     Davidson diagonalization with overlap

     ethr =  4.17E-10,  avg # of iterations = 24.6

     total cpu time spent up to now is       33.5 secs

     End of band structure calculation

          k = 0.0000 0.0000 0.0000 (   811 PWs)   bands (ev):

     8.1459  11.1998  13.6239  13.6240  14.4118  14.4118  14.9632  14.9632
    15.4888  15.4888  16.5023  16.5023  17.0221  17.5701  19.1472  19.1472

          k = 0.0000 0.0000 0.0508 (   805 PWs)   bands (ev):

     8.1923  11.2165  13.5780  13.5780  14.3549  14.3550  14.9819  14.9819
    15.5619  15.5619  16.5402  16.5402  17.0025  17.5873  19.1283  19.1283

          k = 0.0000 0.0000 0.1017 (   805 PWs)   bands (ev):

     8.3304  11.2648  13.4571  13.4572  14.2196  14.2196  15.0258  15.0258
    15.7456  15.7456  16.6480  16.6480  16.9416  17.6370  19.0721  19.0721

          k = 0.0000 0.0000 0.1525 (   817 PWs)   bands (ev):

     8.5564  11.3394  13.2958  13.2959  14.0578  14.0578  15.0738  15.0738
    15.9869  15.9869  16.8087  16.8087  16.8306  17.7144  18.9807  18.9808

          k = 0.0000 0.0000 0.2033 (   811 PWs)   bands (ev):

     8.8631  11.4315  13.1245  13.1245  13.8993  13.8994  15.1142  15.1142
    16.2545  16.2545  16.6433  16.9982  16.9982  17.8116  18.3726  18.8574

          k = 0.0000 0.0000 0.2541 (   817 PWs)   bands (ev):

     9.2382  11.5280  12.9641  12.9641  13.7588  13.7588  15.1442  15.1442
    16.3185  16.5309  16.5310  17.1914  17.1915  17.7346  17.9179  18.7066

          k = 0.0000 0.0000 0.3050 (   805 PWs)   bands (ev):

     9.6600  11.6118  12.8283  12.8283  13.6438  13.6439  15.1650  15.1650
    15.8163  16.8036  16.8036  17.3230  17.3660  17.3660  18.0207  18.5350

          k = 0.0000 0.0000 0.3558 (   793 PWs)   bands (ev):

    10.0886  11.6624  12.7260  12.7260  13.5591  13.5591  15.1784  15.1784
    15.2541  17.0577  17.0577  17.1028  17.5038  17.5038  18.1067  18.3546

          k = 0.0000 0.0000 0.4066 (   805 PWs)   bands (ev):

    10.4466  11.6672  12.6625  12.6626  13.5073  13.5073  14.8154  15.1859
    15.1859  16.9930  17.2641  17.2641  17.5918  17.5918  18.1639  18.1929

          k = 0.0000 0.0000 0.4575 (   816 PWs)   bands (ev):

    10.5981  11.6548  12.6411  12.6411  13.4899  13.4899  14.6479  15.1883
    15.1883  16.9589  17.3536  17.3536  17.6220  17.6220  18.1183  18.1183

          k = 0.0000-0.0525 0.4575 (   810 PWs)   bands (ev):

    10.6453  11.6795  12.6371  12.6432  13.4015  13.4540  14.6361  15.2250
    15.2409  16.8249  17.2866  17.3986  17.7094  17.7184  18.1330  18.1414

          k = 0.0000-0.1050 0.4575 (   814 PWs)   bands (ev):

    10.7851  11.7465  12.6251  12.6555  13.1692  13.3567  14.6016  15.3248
    15.3753  16.5992  17.1800  17.4002  17.8758  17.9658  18.1063  18.1768

          k = 0.0000-0.1575 0.4575 (   808 PWs)   bands (ev):

    11.0114  11.8308  12.6057  12.6988  12.8524  13.2201  14.5522  15.4650
    15.5497  16.3873  17.0889  17.3663  18.0305  18.0624  18.2483  18.2536

          k = 0.0000-0.2099 0.4575 (   800 PWs)   bands (ev):

    11.3123  11.8914  12.5006  12.5798  12.8091  13.0654  14.5001  15.6238
    15.7347  16.2109  17.0234  17.3255  17.9350  18.2527  18.3454  18.5346

          k = 0.0000-0.2624 0.4575 (   796 PWs)   bands (ev):

    11.6577  11.8975  12.1622  12.5493  12.9085  13.0104  14.4559  15.7840
    15.9128  16.0719  16.9841  17.2948  17.8336  18.4371  18.4640  18.7912

          k = 0.0000-0.3149 0.4575 (   804 PWs)   bands (ev):

    11.7297  11.8553  12.1579  12.5164  12.7607  13.2885  14.4271  15.9336
    15.9646  16.0696  16.9679  17.2870  17.7456  18.5979  18.6076  19.0159

          k = 0.0000-0.3674 0.4575 (   808 PWs)   bands (ev):

    11.4572  11.7881  12.4839  12.5467  12.6303  13.6066  14.4194  15.8809
    16.0638  16.1882  16.9691  17.3090  17.6964  18.7377  18.7576  19.2074

          k = 0.0000-0.4199 0.4575 (   812 PWs)   bands (ev):

    11.2126  11.7169  12.4547  12.5232  12.9292  13.9235  14.4373  15.8147
    16.1690  16.2525  16.9807  17.3584  17.7097  18.8707  18.8810  19.3565

          k = 0.0000-0.4724 0.4575 (   804 PWs)   bands (ev):

    11.0283  11.6565  12.4317  12.4437  13.2362  14.1960  14.4811  15.7643
    16.2458  16.2622  16.9954  17.4214  17.7852  18.9729  18.9818  19.4236

          k = 0.0000-0.5249 0.4575 (   804 PWs)   bands (ev):

    10.9143  11.6165  12.3948  12.4169  13.4271  14.3819  14.5342  15.7313
    16.2431  16.2924  17.0071  17.4753  17.8798  19.0296  19.0561  19.4445

          k = 0.0000-0.5774 0.4575 (   812 PWs)   bands (ev):

    10.8758  11.6026  12.3783  12.4118  13.4902  14.4482  14.5594  15.7196
    16.2310  16.3080  17.0115  17.4967  17.9237  19.0488  19.0822  19.4455

          k = 0.0556-0.5774 0.4575 (   810 PWs)   bands (ev):

    10.7730  11.5538  12.4866  12.5109  13.5192  14.4166  14.5587  15.7528
    16.1065  16.3716  16.9828  17.4849  18.0200  18.7874  18.9884  19.7341

          k = 0.1111-0.5774 0.4575 (   808 PWs)   bands (ev):

    10.5497  11.4468  12.6707  12.8183  13.6031  14.3260  14.5555  15.8479
    15.8636  16.4805  16.9034  17.4503  18.2580  18.3768  18.9046  20.1283

          k = 0.1667-0.5774 0.4575 (   820 PWs)   bands (ev):

    10.3161  11.3342  12.9083  13.1755  13.7303  14.1879  14.5481  15.5711
    15.9917  16.6383  16.7907  17.3970  17.9886  18.5533  18.8600  20.4935

          k = 0.2222-0.5774 0.4575 (   820 PWs)   bands (ev):

    10.1263  11.2425  13.1655  13.5088  13.8725  14.0171  14.5455  15.2697
    16.1629  16.6661  16.8382  17.3329  17.6544  18.8399  18.8497  20.7980

          k = 0.2778-0.5774 0.4575 (   816 PWs)   bands (ev):

    10.0047  11.1838  13.4166  13.7737  13.8285  13.9640  14.5925  14.9856
    16.3304  16.5486  17.0510  17.2738  17.3959  18.8553  19.0548  21.0065

          k = 0.3333-0.5774 0.4575 (   816 PWs)   bands (ev):

     9.9628  11.1636  13.6349  13.6349  13.9330  13.9331  14.7461  14.7461
    16.4518  16.4518  17.2236  17.2237  17.2469  18.8601  19.1341  21.0819

          k = 0.3611-0.5292 0.4575 (   816 PWs)   bands (ev):

    10.0047  11.1838  13.4166  13.7737  13.8284  13.9640  14.5925  14.9855
    16.3304  16.5486  17.0510  17.2738  17.3959  18.8553  19.0548  21.0065

          k = 0.3889-0.4811 0.4575 (   820 PWs)   bands (ev):

    10.1263  11.2425  13.1656  13.5088  13.8725  14.0171  14.5455  15.2696
    16.1629  16.6661  16.8382  17.3329  17.6544  18.8399  18.8497  20.7980

          k = 0.4167-0.4330 0.4575 (   820 PWs)   bands (ev):

    10.3161  11.3342  12.9083  13.1755  13.7303  14.1879  14.5481  15.5710
    15.9917  16.6383  16.7907  17.3970  17.9886  18.5533  18.8600  20.4936

          k = 0.4444-0.3849 0.4575 (   808 PWs)   bands (ev):

    10.5497  11.4468  12.6707  12.8183  13.6031  14.3260  14.5555  15.8479
    15.8636  16.4805  16.9034  17.4503  18.2580  18.3768  18.9046  20.1283

          k = 0.4722-0.3368 0.4575 (   810 PWs)   bands (ev):

    10.7730  11.5537  12.4866  12.5109  13.5192  14.4166  14.5588  15.7528
    16.1065  16.3716  16.9828  17.4849  18.0200  18.7874  18.9884  19.7342

          k = 0.5000-0.2887 0.4575 (   812 PWs)   bands (ev):

    10.8758  11.6026  12.3783  12.4118  13.4902  14.4483  14.5594  15.7196
    16.2310  16.3080  17.0115  17.4967  17.9236  19.0488  19.0822  19.4455

          k = 0.5278-0.2406 0.4575 (   810 PWs)   bands (ev):

    10.7730  11.5537  12.4866  12.5109  13.5192  14.4166  14.5588  15.7528
    16.1065  16.3716  16.9828  17.4849  18.0200  18.7874  18.9884  19.7342

          k = 0.5556-0.1924 0.4575 (   808 PWs)   bands (ev):

    10.5497  11.4468  12.6707  12.8183  13.6031  14.3260  14.5555  15.8479
    15.8636  16.4805  16.9034  17.4503  18.2580  18.3768  18.9046  20.1283

          k = 0.5833-0.1443 0.4575 (   820 PWs)   bands (ev):

    10.3161  11.3342  12.9083  13.1755  13.7303  14.1879  14.5481  15.5710
    15.9917  16.6383  16.7907  17.3970  17.9886  18.5533  18.8600  20.4936

          k = 0.6111-0.0962 0.4575 (   820 PWs)   bands (ev):

    10.1263  11.2425  13.1656  13.5088  13.8725  14.0171  14.5455  15.2696
    16.1629  16.6661  16.8382  17.3329  17.6544  18.8399  18.8497  20.7980

          k = 0.6389-0.0481 0.4575 (   816 PWs)   bands (ev):

    10.0047  11.1838  13.4166  13.7737  13.8284  13.9640  14.5925  14.9855
    16.3304  16.5486  17.0510  17.2738  17.3959  18.8553  19.0548  21.0065

          k = 0.6667 0.0000 0.4575 (   816 PWs)   bands (ev):

     9.9628  11.1636  13.6349  13.6349  13.9330  13.9331  14.7461  14.7461
    16.4518  16.4518  17.2236  17.2237  17.2469  18.8601  19.1341  21.0819

          k = 0.6667 0.0000 0.4066 (   822 PWs)   bands (ev):

     9.9406  11.1928  13.6211  13.6211  13.9322  13.9323  14.7089  14.7090
    16.4386  16.4386  17.2007  17.3034  17.3034  18.8609  19.1170  21.0818

          k = 0.6667 0.0000 0.3558 (   819 PWs)   bands (ev):

     9.8803  11.2743  13.5840  13.5840  13.9294  13.9294  14.5968  14.5969
    16.4515  16.4515  17.0727  17.4885  17.4885  18.8635  19.0660  21.0817

          k = 0.6667 0.0000 0.3050 (   819 PWs)   bands (ev):

     9.7954  11.3948  13.5328  13.5328  13.9235  13.9235  14.4213  14.4213
    16.5492  16.5492  16.8882  17.7037  17.7037  18.8673  18.9838  21.0814

          k = 0.6667 0.0000 0.2541 (   819 PWs)   bands (ev):

     9.7002  11.5394  13.4773  13.4773  13.9132  13.9132  14.2140  14.2140
    16.6755  16.7381  16.7381  17.9081  17.9081  18.8720  18.8789  20.9924

          k = 0.6667 0.0000 0.2033 (   807 PWs)   bands (ev):

     9.6065  11.6938  13.4249  13.4250  13.8872  13.8872  14.0207  14.0207
    16.4595  17.0007  17.0007  18.0832  18.0832  18.7643  18.8770  20.5222

          k = 0.6667 0.0000 0.1525 (   813 PWs)   bands (ev):

     9.5236  11.8424  13.3805  13.3806  13.7805  13.7805  13.9337  13.9338
    16.2614  17.3172  17.3172  18.2211  18.2211  18.6554  18.8818  20.0549

          k = 0.6667 0.0000 0.1017 (   813 PWs)   bands (ev):

     9.4590  11.9681  13.3470  13.3470  13.6486  13.6486  13.9163  13.9163
    16.1003  17.6671  17.6671  18.3192  18.3192  18.5662  18.8856  19.6027

          k = 0.6667 0.0000 0.0508 (   810 PWs)   bands (ev):

     9.4180  12.0534  13.3260  13.3261  13.5617  13.5618  13.9095  13.9096
    15.9942  18.0143  18.0144  18.3761  18.3761  18.5081  18.8882  19.1974

          k = 0.6667 0.0000 0.0000 (   822 PWs)   bands (ev):

     9.4039  12.0836  13.3189  13.3189  13.5320  13.5320  13.9075  13.9075
    15.9570  18.2118  18.2118  18.3907  18.3907  18.4879  18.8890  18.9852

          k = 0.6111 0.0000 0.0000 (   814 PWs)   bands (ev):

     9.4434  12.0898  13.1291  13.3508  13.4268  13.7548  13.7978  13.9933
    15.8388  18.1710  18.2102  18.2436  18.2886  18.3596  18.8745  19.2473

          k = 0.5556 0.0000 0.0000 (   820 PWs)   bands (ev):

     9.5574  12.1147  12.7888  13.1989  13.4678  13.7875  13.9559  14.0370
    15.6134  17.9269  18.0709  18.1582  18.1987  18.2987  18.8490  19.5259

          k = 0.5000 0.0000 0.0000 (   816 PWs)   bands (ev):

     9.7289  12.1667  12.3404  13.0840  13.4011  13.7363  13.9356  14.3766
    15.4832  17.6648  17.9102  18.0261  18.1559  18.2131  18.8418  19.4664

          k = 0.4444 0.0000 0.0000 (   808 PWs)   bands (ev):

     9.9098  11.8758  12.2512  13.0116  13.3255  13.3817  14.1581  14.7716
    15.4843  17.4205  17.6928  17.8077  18.0777  18.1307  18.8633  19.2524

          k = 0.3889 0.0000 0.0000 (   810 PWs)   bands (ev):

     9.9733  11.5686  12.3711  12.9850  12.9863  13.2854  14.4213  15.2201
    15.5474  17.1893  17.4266  17.5195  17.8589  18.0864  18.9049  18.9952

          k = 0.3333 0.0000 0.0000 (   810 PWs)   bands (ev):

     9.7669  11.5961  12.5264  12.6180  13.0052  13.2966  14.7139  15.6159
    15.7194  16.9804  17.1223  17.1835  17.5377  17.9979  18.7533  18.9553

          k = 0.2778 0.0000 0.0000 (   816 PWs)   bands (ev):

     9.3815  11.7992  12.3943  12.7146  13.0705  13.3671  15.0262  15.6545
    16.2623  16.7969  16.8077  16.8205  17.1327  17.8542  18.5334  19.0066

          k = 0.2222 0.0000 0.0000 (   818 PWs)   bands (ev):

     8.9770  11.7319  12.6241  12.9292  13.1759  13.5000  15.3406  15.6382
    16.4279  16.4511  16.6826  16.6899  16.8824  17.6594  18.3177  19.0536

          k = 0.1667 0.0000 0.0000 (   808 PWs)   bands (ev):

     8.6274  11.5236  13.1107  13.1584  13.3109  13.6947  15.5519  15.5971
    16.0982  16.0998  16.2916  16.6040  17.4347  17.5073  18.0933  19.0931

          k = 0.1111 0.0000 0.0000 (   812 PWs)   bands (ev):

     8.3638  11.3484  13.3802  13.4557  13.6401  13.9447  15.3886  15.5247
    15.7911  15.7988  16.2172  16.5547  17.2215  17.8639  18.1639  19.1227

          k = 0.0556 0.0000 0.0000 (   807 PWs)   bands (ev):

     8.2009  11.2375  13.5546  13.5755  14.1330  14.2279  15.1505  15.1804
    15.5711  15.5749  16.4036  16.5184  17.0731  17.6615  18.7959  19.1410

          k = 0.0000 0.0000 0.0000 (   811 PWs)   bands (ev):

     8.1459  11.1998  13.6239  13.6240  14.4118  14.4118  14.9632  14.9632
    15.4888  15.4888  16.5023  16.5023  17.0221  17.5701  19.1472  19.1472

     Writing output data file Mgb2.save

     init_run     :      1.10s CPU      0.96s WALL (       1 calls)
     electrons    :     98.22s CPU     32.30s WALL (       1 calls)

     Called by init_run:
     wfcinit      :      0.00s CPU      0.00s WALL (       1 calls)
     potinit      :      0.02s CPU      0.02s WALL (       1 calls)

     Called by electrons:
     c_bands      :     98.22s CPU     32.30s WALL (       1 calls)
     v_of_rho     :      0.01s CPU      0.01s WALL (       1 calls)
     newd         :      0.04s CPU      0.06s WALL (       1 calls)

     Called by c_bands:
     init_us_2    :      0.15s CPU      0.05s WALL (      60 calls)
     cegterg      :     92.91s CPU     30.52s WALL (     100 calls)

     Called by sum_band:

     Called by *egterg:
     h_psi        :     62.86s CPU     20.03s WALL (    1639 calls)
     s_psi        :      2.44s CPU      0.79s WALL (    1639 calls)
     g_psi        :      0.35s CPU      0.11s WALL (    1479 calls)
     cdiaghg      :     21.84s CPU      8.01s WALL (    1539 calls)

     Called by h_psi:
     h_psi:pot    :     62.62s CPU     19.96s WALL (    1639 calls)
     h_psi:calbec :      2.55s CPU      0.83s WALL (    1639 calls)
     vloc_psi     :     57.46s CPU     18.31s WALL (    1639 calls)
     add_vuspsi   :      2.58s CPU      0.81s WALL (    1639 calls)

     General routines
     calbec       :      2.53s CPU      0.82s WALL (    1639 calls)
     fft          :      0.01s CPU      0.01s WALL (      12 calls)
     fftw         :     54.18s CPU     17.27s WALL (   36454 calls)
     davcio       :      0.03s CPU      0.01s WALL (      60 calls)

     Parallel routines
     fft_scatter  :      3.86s CPU      1.23s WALL (   36466 calls)

     PWSCF        :  1m39.93s CPU     0m33.72s WALL


   This run was terminated on:  15:35:52  31Oct2019            

=------------------------------------------------------------------------------=
   JOB DONE.
=------------------------------------------------------------------------------=


