
     Program PWSCF v.6.0 (svn rev. 13079) starts on 31Oct2019 at 15:32:12 

     This program is part of the open-source Quantum ESPRESSO suite
     for quantum simulation of materials; please cite
         "P. Giannozzi et al., J. Phys.:Condens. Matter 21 395502 (2009);
          URL http://www.quantum-espresso.org", 
     in publications or presentations arising from this work. More details at
     http://www.quantum-espresso.org/quote

     Parallel version (MPI), running on     1 processors
     Waiting for input...
     Reading input from standard input

     Current dimensions of program PWSCF are:
     Max number of different atomic species (ntypx) = 10
     Max number of k-points (npk) =  40000
     Max angular momentum in pseudopotentials (lmaxx) =  3
               file Fe.pbe-nd-rrkjus.UPF: wavefunction(s)  4S renormalized
               file Fe.pbe-nd-rrkjus.UPF: wavefunction(s)  4S renormalized

     Subspace diagonalization in iterative solution of the eigenvalue problem:
     a serial algorithm will be used


     G-vector sticks info
     --------------------
     sticks:   dense  smooth     PW     G-vecs:    dense   smooth      PW
     Sum         379     379    121                 6559     6559    1203



     bravais-lattice index     =            4
     lattice parameter (alat)  =       5.8600  a.u.
     unit-cell volume          =     190.4775 (a.u.)^3
     number of atoms/cell      =            3
     number of atomic types    =            2
     number of electrons       =        24.00
     number of Kohn-Sham states=           16
     kinetic-energy cutoff     =      40.0000  Ry
     charge density cutoff     =     160.0000  Ry
     convergence threshold     =      1.0E-07
     mixing beta               =       0.7000
     number of iterations used =            8  plain     mixing
     Exchange-correlation      =  SLA  PW   PBE  PBE ( 1  4  3  4 0 0)

     celldm(1)=   5.860000  celldm(2)=   0.000000  celldm(3)=   1.093000
     celldm(4)=   0.000000  celldm(5)=   0.000000  celldm(6)=   0.000000

     crystal axes: (cart. coord. in units of alat)
               a(1) = (   1.000000   0.000000   0.000000 )  
               a(2) = (  -0.500000   0.866025   0.000000 )  
               a(3) = (   0.000000   0.000000   1.093000 )  

     reciprocal axes: (cart. coord. in units 2 pi/alat)
               b(1) = (  1.000000  0.577350 -0.000000 )  
               b(2) = (  0.000000  1.154701  0.000000 )  
               b(3) = (  0.000000 -0.000000  0.914913 )  


     PseudoPot. # 1 for Fe read from file:
     ./Fe.pbe-nd-rrkjus.UPF
     MD5 check sum: 398036227a04b607635f6f5e8dfd8242
     Pseudo is Ultrasoft + core correction, Zval =  8.0
     Generated by new atomic code, or converted to UPF format
     Using radial grid of  957 points,  6 beta functions with: 
                l(1) =   0
                l(2) =   0
                l(3) =   1
                l(4) =   1
                l(5) =   2
                l(6) =   2
     Q(r) pseudized with 0 coefficients 


     PseudoPot. # 2 for Fe read from file:
     ./Fe.pbe-nd-rrkjus.UPF
     MD5 check sum: 398036227a04b607635f6f5e8dfd8242
     Pseudo is Ultrasoft + core correction, Zval =  8.0
     Generated by new atomic code, or converted to UPF format
     Using radial grid of  957 points,  6 beta functions with: 
                l(1) =   0
                l(2) =   0
                l(3) =   1
                l(4) =   1
                l(5) =   2
                l(6) =   2
     Q(r) pseudized with 0 coefficients 


     atomic species   valence    mass     pseudopotential
        Mg             8.00    24.30500     Fe( 1.00)
        B              8.00    10.81000     Fe( 1.00)

     24 Sym. Ops., with inversion, found



   Cartesian axes

     site n.     atom                  positions (alat units)
         1           Mg  tau(   1) = (   0.0000000   0.0000000   0.0000000  )
         2           B   tau(   2) = (   0.0000000   0.5773497   0.5465000  )
         3           B   tau(   3) = (   0.4999995   0.2886748   0.5465000  )

     number of k points=    60  gaussian smearing, width (Ry)=  0.0250
                       cart. coord. in units 2pi/alat
        k(    1) = (   0.0000000   0.0000000   0.0000000), wk =   0.0333333
        k(    2) = (   0.0000000   0.0000000   0.0508285), wk =   0.0333333
        k(    3) = (   0.0000000   0.0000000   0.1016570), wk =   0.0333333
        k(    4) = (   0.0000000   0.0000000   0.1524855), wk =   0.0333333
        k(    5) = (   0.0000000   0.0000000   0.2033140), wk =   0.0333333
        k(    6) = (   0.0000000   0.0000000   0.2541425), wk =   0.0333333
        k(    7) = (   0.0000000   0.0000000   0.3049710), wk =   0.0333333
        k(    8) = (   0.0000000   0.0000000   0.3557995), wk =   0.0333333
        k(    9) = (   0.0000000   0.0000000   0.4066280), wk =   0.0333333
        k(   10) = (   0.0000000   0.0000000   0.4574565), wk =   0.0333333
        k(   11) = (   0.0000000  -0.0524864   0.4574565), wk =   0.0333333
        k(   12) = (   0.0000000  -0.1049728   0.4574565), wk =   0.0333333
        k(   13) = (   0.0000000  -0.1574592   0.4574565), wk =   0.0333333
        k(   14) = (   0.0000000  -0.2099456   0.4574565), wk =   0.0333333
        k(   15) = (   0.0000000  -0.2624319   0.4574565), wk =   0.0333333
        k(   16) = (   0.0000000  -0.3149183   0.4574565), wk =   0.0333333
        k(   17) = (   0.0000000  -0.3674047   0.4574565), wk =   0.0333333
        k(   18) = (   0.0000000  -0.4198911   0.4574565), wk =   0.0333333
        k(   19) = (   0.0000000  -0.4723775   0.4574565), wk =   0.0333333
        k(   20) = (   0.0000000  -0.5248639   0.4574565), wk =   0.0333333
        k(   21) = (   0.0000000  -0.5773503   0.4574565), wk =   0.0333333
        k(   22) = (   0.0555550  -0.5773512   0.4574565), wk =   0.0333333
        k(   23) = (   0.1111100  -0.5773522   0.4574565), wk =   0.0333333
        k(   24) = (   0.1666650  -0.5773532   0.4574565), wk =   0.0333333
        k(   25) = (   0.2222200  -0.5773541   0.4574565), wk =   0.0333333
        k(   26) = (   0.2777750  -0.5773551   0.4574565), wk =   0.0333333
        k(   27) = (   0.3333300  -0.5773560   0.4574565), wk =   0.0333333
        k(   28) = (   0.3611083  -0.5292426   0.4574565), wk =   0.0333333
        k(   29) = (   0.3888867  -0.4811291   0.4574565), wk =   0.0333333
        k(   30) = (   0.4166650  -0.4330156   0.4574565), wk =   0.0333333
        k(   31) = (   0.4444433  -0.3849021   0.4574565), wk =   0.0333333
        k(   32) = (   0.4722217  -0.3367886   0.4574565), wk =   0.0333333
        k(   33) = (   0.5000000  -0.2886751   0.4574565), wk =   0.0333333
        k(   34) = (   0.5277783  -0.2405617   0.4574565), wk =   0.0333333
        k(   35) = (   0.5555567  -0.1924482   0.4574565), wk =   0.0333333
        k(   36) = (   0.5833350  -0.1443347   0.4574565), wk =   0.0333333
        k(   37) = (   0.6111133  -0.0962212   0.4574565), wk =   0.0333333
        k(   38) = (   0.6388917  -0.0481077   0.4574565), wk =   0.0333333
        k(   39) = (   0.6666700   0.0000058   0.4574565), wk =   0.0333333
        k(   40) = (   0.6666700   0.0000058   0.4066280), wk =   0.0333333
        k(   41) = (   0.6666700   0.0000058   0.3557995), wk =   0.0333333
        k(   42) = (   0.6666700   0.0000058   0.3049710), wk =   0.0333333
        k(   43) = (   0.6666700   0.0000058   0.2541425), wk =   0.0333333
        k(   44) = (   0.6666700   0.0000058   0.2033140), wk =   0.0333333
        k(   45) = (   0.6666700   0.0000058   0.1524855), wk =   0.0333333
        k(   46) = (   0.6666700   0.0000058   0.1016570), wk =   0.0333333
        k(   47) = (   0.6666700   0.0000058   0.0508285), wk =   0.0333333
        k(   48) = (   0.6666700   0.0000058   0.0000000), wk =   0.0333333
        k(   49) = (   0.6111142   0.0000053   0.0000000), wk =   0.0333333
        k(   50) = (   0.5555583   0.0000048   0.0000000), wk =   0.0333333
        k(   51) = (   0.5000025   0.0000043   0.0000000), wk =   0.0333333
        k(   52) = (   0.4444467   0.0000038   0.0000000), wk =   0.0333333
        k(   53) = (   0.3888908   0.0000034   0.0000000), wk =   0.0333333
        k(   54) = (   0.3333350   0.0000029   0.0000000), wk =   0.0333333
        k(   55) = (   0.2777792   0.0000024   0.0000000), wk =   0.0333333
        k(   56) = (   0.2222233   0.0000019   0.0000000), wk =   0.0333333
        k(   57) = (   0.1666675   0.0000014   0.0000000), wk =   0.0333333
        k(   58) = (   0.1111117   0.0000010   0.0000000), wk =   0.0333333
        k(   59) = (   0.0555558   0.0000005   0.0000000), wk =   0.0333333
        k(   60) = (   0.0000000   0.0000000   0.0000000), wk =   0.0333333

     Dense  grid:     6559 G-vectors     FFT dimensions: (  24,  24,  25)

     Estimated max dynamical RAM per process >      18.24Mb

     Check: negative/imaginary core charge=   -0.000013    0.000000

     Initial potential from superposition of free atoms

     starting charge   23.99810, renormalised to   24.00000
     Starting wfc are   18 randomized atomic wfcs

     total cpu time spent up to now is        2.7 secs

     per-process dynamical memory:    29.7 Mb

     Self-consistent Calculation

     iteration #  1     ecut=    40.00 Ry     beta=0.70
     Davidson diagonalization with overlap
     ethr =  1.00E-02,  avg # of iterations =  2.9

     total cpu time spent up to now is        8.0 secs

     total energy              =    -165.60132491 Ry
     Harris-Foulkes estimate   =    -167.09307841 Ry
     estimated scf accuracy    <       1.81236121 Ry

     iteration #  2     ecut=    40.00 Ry     beta=0.70
     Davidson diagonalization with overlap
     ethr =  7.55E-03,  avg # of iterations =  3.5

     total cpu time spent up to now is       15.9 secs

     total energy              =    -165.75128764 Ry
     Harris-Foulkes estimate   =    -171.47954418 Ry
     estimated scf accuracy    <      22.03596562 Ry

     iteration #  3     ecut=    40.00 Ry     beta=0.70
     Davidson diagonalization with overlap
     ethr =  7.55E-03,  avg # of iterations =  3.0

     total cpu time spent up to now is       22.4 secs

     total energy              =    -166.75534361 Ry
     Harris-Foulkes estimate   =    -167.06781064 Ry
     estimated scf accuracy    <       1.67380701 Ry

     iteration #  4     ecut=    40.00 Ry     beta=0.70
     Davidson diagonalization with overlap
     ethr =  6.97E-03,  avg # of iterations =  1.1

     total cpu time spent up to now is       26.3 secs

     total energy              =    -166.87646414 Ry
     Harris-Foulkes estimate   =    -166.89832351 Ry
     estimated scf accuracy    <       0.07663595 Ry

     iteration #  5     ecut=    40.00 Ry     beta=0.70
     Davidson diagonalization with overlap
     ethr =  3.19E-04,  avg # of iterations =  3.1

     total cpu time spent up to now is       32.0 secs

     total energy              =    -166.92177732 Ry
     Harris-Foulkes estimate   =    -166.92991718 Ry
     estimated scf accuracy    <       0.43622156 Ry

     iteration #  6     ecut=    40.00 Ry     beta=0.70
     Davidson diagonalization with overlap
     ethr =  3.19E-04,  avg # of iterations =  1.0

     total cpu time spent up to now is       35.8 secs

     total energy              =    -166.92608667 Ry
     Harris-Foulkes estimate   =    -166.92285743 Ry
     estimated scf accuracy    <       0.28921410 Ry

     iteration #  7     ecut=    40.00 Ry     beta=0.70
     Davidson diagonalization with overlap
     ethr =  3.19E-04,  avg # of iterations =  1.0

     total cpu time spent up to now is       39.3 secs

     total energy              =    -166.89414906 Ry
     Harris-Foulkes estimate   =    -166.92662932 Ry
     estimated scf accuracy    <       0.36415858 Ry

     iteration #  8     ecut=    40.00 Ry     beta=0.70
     Davidson diagonalization with overlap
     ethr =  3.19E-04,  avg # of iterations =  1.1

     total cpu time spent up to now is       42.5 secs

     total energy              =    -166.91000051 Ry
     Harris-Foulkes estimate   =    -166.91019867 Ry
     estimated scf accuracy    <       0.00171539 Ry

     iteration #  9     ecut=    40.00 Ry     beta=0.70
     Davidson diagonalization with overlap
     ethr =  7.15E-06,  avg # of iterations =  5.3

     total cpu time spent up to now is       48.8 secs

     total energy              =    -166.91137878 Ry
     Harris-Foulkes estimate   =    -166.91105208 Ry
     estimated scf accuracy    <       0.00351720 Ry

     iteration # 10     ecut=    40.00 Ry     beta=0.70
     Davidson diagonalization with overlap
     ethr =  7.15E-06,  avg # of iterations =  1.1

     total cpu time spent up to now is       52.3 secs

     total energy              =    -166.91054282 Ry
     Harris-Foulkes estimate   =    -166.91160610 Ry
     estimated scf accuracy    <       0.01719250 Ry

     iteration # 11     ecut=    40.00 Ry     beta=0.70
     Davidson diagonalization with overlap
     ethr =  7.15E-06,  avg # of iterations =  1.1

     total cpu time spent up to now is       56.5 secs

     total energy              =    -166.91080183 Ry
     Harris-Foulkes estimate   =    -166.91093465 Ry
     estimated scf accuracy    <       0.00107003 Ry

     iteration # 12     ecut=    40.00 Ry     beta=0.70
     Davidson diagonalization with overlap
     ethr =  4.46E-06,  avg # of iterations =  1.3

     total cpu time spent up to now is       60.2 secs

     total energy              =    -166.91093396 Ry
     Harris-Foulkes estimate   =    -166.91093062 Ry
     estimated scf accuracy    <       0.00058466 Ry

     iteration # 13     ecut=    40.00 Ry     beta=0.70
     Davidson diagonalization with overlap
     ethr =  2.44E-06,  avg # of iterations =  1.5

     total cpu time spent up to now is       64.3 secs

     total energy              =    -166.91090654 Ry
     Harris-Foulkes estimate   =    -166.91094339 Ry
     estimated scf accuracy    <       0.00065786 Ry

     iteration # 14     ecut=    40.00 Ry     beta=0.70
     Davidson diagonalization with overlap
     ethr =  2.44E-06,  avg # of iterations =  1.2

     total cpu time spent up to now is       68.5 secs

     total energy              =    -166.91090261 Ry
     Harris-Foulkes estimate   =    -166.91091813 Ry
     estimated scf accuracy    <       0.00013250 Ry

     iteration # 15     ecut=    40.00 Ry     beta=0.70
     Davidson diagonalization with overlap
     ethr =  5.52E-07,  avg # of iterations =  1.4

     total cpu time spent up to now is       72.2 secs

     total energy              =    -166.91091514 Ry
     Harris-Foulkes estimate   =    -166.91091625 Ry
     estimated scf accuracy    <       0.00003205 Ry

     iteration # 16     ecut=    40.00 Ry     beta=0.70
     Davidson diagonalization with overlap
     ethr =  1.34E-07,  avg # of iterations =  2.5

     total cpu time spent up to now is       76.3 secs

     total energy              =    -166.91093929 Ry
     Harris-Foulkes estimate   =    -166.91093978 Ry
     estimated scf accuracy    <       0.00002827 Ry

     iteration # 17     ecut=    40.00 Ry     beta=0.70
     Davidson diagonalization with overlap
     ethr =  1.18E-07,  avg # of iterations =  1.1

     total cpu time spent up to now is       79.9 secs

     total energy              =    -166.91093758 Ry
     Harris-Foulkes estimate   =    -166.91093976 Ry
     estimated scf accuracy    <       0.00002039 Ry

     iteration # 18     ecut=    40.00 Ry     beta=0.70
     Davidson diagonalization with overlap
     ethr =  8.50E-08,  avg # of iterations =  1.2

     total cpu time spent up to now is       83.3 secs

     total energy              =    -166.91093906 Ry
     Harris-Foulkes estimate   =    -166.91093927 Ry
     estimated scf accuracy    <       0.00000194 Ry

     iteration # 19     ecut=    40.00 Ry     beta=0.70
     Davidson diagonalization with overlap
     ethr =  8.10E-09,  avg # of iterations =  4.3

     total cpu time spent up to now is       88.6 secs

     total energy              =    -166.91094808 Ry
     Harris-Foulkes estimate   =    -166.91094809 Ry
     estimated scf accuracy    <       0.00000014 Ry

     iteration # 20     ecut=    40.00 Ry     beta=0.70
     Davidson diagonalization with overlap
     ethr =  5.67E-10,  avg # of iterations =  3.4

     total cpu time spent up to now is       93.0 secs

     End of self-consistent calculation

          k = 0.0000 0.0000 0.0000 (   811 PWs)   bands (ev):

     8.1458  11.1999  13.6236  13.6237  14.4119  14.4119  14.9635  14.9635
    15.4900  15.4900  16.5042  16.5042  17.0237  17.5696  19.1481  19.1481

          k = 0.0000 0.0000 0.0508 (   805 PWs)   bands (ev):

     8.1923  11.2165  13.5777  13.5778  14.3550  14.3551  14.9822  14.9822
    15.5630  15.5630  16.5421  16.5421  17.0041  17.5867  19.1292  19.1292

          k = 0.0000 0.0000 0.1017 (   805 PWs)   bands (ev):

     8.3304  11.2648  13.4570  13.4570  14.2198  14.2198  15.0259  15.0260
    15.7466  15.7466  16.6499  16.6499  16.9432  17.6364  19.0730  19.0731

          k = 0.0000 0.0000 0.1525 (   817 PWs)   bands (ev):

     8.5564  11.3394  13.2958  13.2958  14.0581  14.0582  15.0739  15.0740
    15.9878  15.9878  16.8105  16.8105  16.8321  17.7139  18.9817  18.9817

          k = 0.0000 0.0000 0.2033 (   811 PWs)   bands (ev):

     8.8631  11.4315  13.1245  13.1245  13.8997  13.8998  15.1143  15.1143
    16.2552  16.2552  16.6445  17.0001  17.0001  17.8111  18.3732  18.8584

          k = 0.0000 0.0000 0.2541 (   817 PWs)   bands (ev):

     9.2382  11.5280  12.9641  12.9641  13.7592  13.7592  15.1443  15.1443
    16.3191  16.5315  16.5316  17.1933  17.1933  17.7357  17.9174  18.7076

          k = 0.0000 0.0000 0.3050 (   805 PWs)   bands (ev):

     9.6600  11.6117  12.8284  12.8284  13.6443  13.6444  15.1650  15.1651
    15.8163  16.8041  16.8041  17.3248  17.3679  17.3679  18.0202  18.5362

          k = 0.0000 0.0000 0.3558 (   793 PWs)   bands (ev):

    10.0886  11.6624  12.7260  12.7261  13.5596  13.5597  15.1784  15.1785
    15.2539  17.0580  17.0580  17.1049  17.5057  17.5057  18.3560  18.3560

          k = 0.0000 0.0000 0.4066 (   805 PWs)   bands (ev):

    10.4466  11.6672  12.6626  12.6627  13.5078  13.5078  14.8150  15.1859
    15.1859  16.9952  17.2640  17.2640  17.5937  17.5937  18.1946  18.1946

          k = 0.0000 0.0000 0.4575 (   816 PWs)   bands (ev):

    10.5981  11.6548  12.6412  12.6412  13.4904  13.4904  14.6474  15.1883
    15.1883  16.9611  17.3533  17.3533  17.6239  17.6239  18.1202  18.1202

          k = 0.0000-0.0525 0.4575 (   810 PWs)   bands (ev):

    10.6453  11.6796  12.6371  12.6433  13.4020  13.4545  14.6357  15.2251
    15.2410  16.8266  17.2868  17.3996  17.7108  17.7196  18.1349  18.1426

          k = 0.0000-0.1050 0.4575 (   814 PWs)   bands (ev):

    10.7851  11.7465  12.6251  12.6555  13.1696  13.3572  14.6012  15.3250
    15.3755  16.6006  17.1806  17.4019  17.8769  17.9665  18.1062  18.1785

          k = 0.0000-0.1575 0.4575 (   808 PWs)   bands (ev):

    11.0114  11.8308  12.6057  12.6989  12.8527  13.2204  14.5520  15.4655
    15.5500  16.3887  17.0898  17.3682  18.0304  18.0633  18.2499  18.2542

          k = 0.0000-0.2099 0.4575 (   800 PWs)   bands (ev):

    11.3124  11.8914  12.5008  12.5798  12.8091  13.0657  14.5001  15.6245
    15.7350  16.2123  17.0245  17.3274  17.9347  18.2534  18.3468  18.5351

          k = 0.0000-0.2624 0.4575 (   796 PWs)   bands (ev):

    11.6578  11.8975  12.1624  12.5492  12.9087  13.0105  14.4560  15.7850
    15.9131  16.0733  16.9854  17.2967  17.8333  18.4377  18.4652  18.7917

          k = 0.0000-0.3149 0.4575 (   804 PWs)   bands (ev):

    11.7297  11.8552  12.1581  12.5163  12.7609  13.2885  14.4272  15.9348
    15.9661  16.0697  16.9693  17.2890  17.7454  18.5988  18.6082  19.0719

          k = 0.0000-0.3674 0.4575 (   808 PWs)   bands (ev):

    11.4573  11.7880  12.4837  12.5469  12.6305  13.6066  14.4195  15.8825
    16.0653  16.1882  16.9706  17.3111  17.6962  18.7383  18.7582  19.2076

          k = 0.0000-0.4199 0.4575 (   812 PWs)   bands (ev):

    11.2127  11.7168  12.4545  12.5233  12.9296  13.9234  14.4375  15.8164
    16.1707  16.2524  16.9823  17.3605  17.7095  18.8711  18.8815  19.3572

          k = 0.0000-0.4724 0.4575 (   804 PWs)   bands (ev):

    11.0284  11.6564  12.4314  12.4438  13.2367  14.1958  14.4811  15.7659
    16.2477  16.2620  16.9971  17.4236  17.7850  18.9734  18.9820  19.4242

          k = 0.0000-0.5249 0.4575 (   804 PWs)   bands (ev):

    10.9144  11.6165  12.3950  12.4166  13.4278  14.3817  14.5341  15.7329
    16.2428  16.2943  17.0088  17.4777  17.8795  19.0301  19.0562  19.4450

          k = 0.0000-0.5774 0.4575 (   812 PWs)   bands (ev):

    10.8758  11.6026  12.3785  12.4115  13.4910  14.4480  14.5593  15.7212
    16.2308  16.3099  17.0132  17.4991  17.9234  19.0493  19.4459  19.6361

          k = 0.0556-0.5774 0.4575 (   810 PWs)   bands (ev):

    10.7731  11.5537  12.4864  12.5111  13.5200  14.4164  14.5587  15.7544
    16.1077  16.3720  16.9845  17.4872  18.0199  18.7876  18.9887  19.7345

          k = 0.1111-0.5774 0.4575 (   808 PWs)   bands (ev):

    10.5498  11.4467  12.6705  12.8184  13.6038  14.3258  14.5555  15.8495
    15.8651  16.4804  16.9052  17.4527  18.2581  18.3769  18.9046  20.1431

          k = 0.1667-0.5774 0.4575 (   820 PWs)   bands (ev):

    10.3162  11.3341  12.9082  13.1756  13.7309  14.1877  14.5483  15.5726
    15.9934  16.6380  16.7924  17.3994  17.9888  18.5534  18.8599  20.6055

          k = 0.2222-0.5774 0.4575 (   820 PWs)   bands (ev):

    10.1264  11.2424  13.1655  13.5088  13.8730  14.0170  14.5459  15.2712
    16.1645  16.6678  16.8379  17.3353  17.6545  18.8401  18.8494  21.1472

          k = 0.2778-0.5774 0.4575 (   816 PWs)   bands (ev):

    10.0048  11.1836  13.4165  13.7736  13.8283  13.9642  14.5934  14.9870
    16.3320  16.5502  17.0508  17.2762  17.3959  18.8550  19.0549  21.0066

          k = 0.3333-0.5774 0.4575 (   816 PWs)   bands (ev):

     9.9628  11.1634  13.6348  13.6348  13.9330  13.9330  14.7473  14.7474
    16.4535  16.4535  17.2235  17.2235  17.2493  18.8598  19.1342  21.0820

          k = 0.3611-0.5292 0.4575 (   816 PWs)   bands (ev):

    10.0047  11.1836  13.4166  13.7736  13.8283  13.9642  14.5935  14.9870
    16.3320  16.5502  17.0508  17.2762  17.3958  18.8550  19.0549  21.0066

          k = 0.3889-0.4811 0.4575 (   820 PWs)   bands (ev):

    10.1264  11.2424  13.1655  13.5088  13.8730  14.0170  14.5460  15.2711
    16.1646  16.6678  16.8379  17.3353  17.6545  18.8401  18.8494  21.1473

          k = 0.4167-0.4330 0.4575 (   820 PWs)   bands (ev):

    10.3161  11.3341  12.9082  13.1756  13.7310  14.1878  14.5483  15.5726
    15.9934  16.6379  16.7924  17.3994  17.9888  18.5535  18.8599  20.6055

          k = 0.4444-0.3849 0.4575 (   808 PWs)   bands (ev):

    10.5498  11.4467  12.6706  12.8184  13.6038  14.3258  14.5556  15.8495
    15.8651  16.4803  16.9051  17.4527  18.2580  18.3769  18.9046  20.1432

          k = 0.4722-0.3368 0.4575 (   810 PWs)   bands (ev):

    10.7730  11.5537  12.4864  12.5110  13.5200  14.4164  14.5587  15.7544
    16.1077  16.3720  16.9845  17.4873  18.0199  18.7876  18.9887  19.7345

          k = 0.5000-0.2887 0.4575 (   812 PWs)   bands (ev):

    10.8758  11.6026  12.3784  12.4115  13.4910  14.4480  14.5594  15.7212
    16.2307  16.3099  17.0132  17.4991  17.9234  19.0493  19.4460  19.6361

          k = 0.5278-0.2406 0.4575 (   810 PWs)   bands (ev):

    10.7730  11.5537  12.4864  12.5110  13.5200  14.4164  14.5587  15.7544
    16.1077  16.3720  16.9845  17.4873  18.0199  18.7876  18.9887  19.7899

          k = 0.5556-0.1924 0.4575 (   808 PWs)   bands (ev):

    10.5498  11.4467  12.6706  12.8184  13.6038  14.3258  14.5556  15.8495
    15.8651  16.4803  16.9051  17.4527  18.2580  18.3769  18.9046  20.1432

          k = 0.5833-0.1443 0.4575 (   820 PWs)   bands (ev):

    10.3161  11.3341  12.9082  13.1756  13.7310  14.1878  14.5483  15.5726
    15.9934  16.6379  16.7924  17.3994  17.9888  18.5535  18.8599  20.6055

          k = 0.6111-0.0962 0.4575 (   820 PWs)   bands (ev):

    10.1264  11.2424  13.1655  13.5088  13.8730  14.0170  14.5460  15.2711
    16.1646  16.6678  16.8379  17.3353  17.6545  18.8401  18.8494  20.7982

          k = 0.6389-0.0481 0.4575 (   816 PWs)   bands (ev):

    10.0047  11.1836  13.4166  13.7736  13.8283  13.9642  14.5935  14.9870
    16.3320  16.5502  17.0508  17.2762  17.3958  18.8550  19.0549  21.0066

          k = 0.6667 0.0000 0.4575 (   816 PWs)   bands (ev):

     9.9628  11.1634  13.6348  13.6348  13.9330  13.9330  14.7473  14.7474
    16.4535  16.4535  17.2235  17.2235  17.2493  18.8598  19.1342  21.0820

          k = 0.6667 0.0000 0.4066 (   822 PWs)   bands (ev):

     9.9407  11.1926  13.6210  13.6211  13.9322  13.9322  14.7101  14.7102
    16.4401  16.4402  17.2030  17.3035  17.3035  18.8606  19.1172  21.0819

          k = 0.6667 0.0000 0.3558 (   819 PWs)   bands (ev):

     9.8803  11.2742  13.5839  13.5840  13.9293  13.9294  14.5979  14.5979
    16.4529  16.4529  17.0748  17.4888  17.4888  18.8632  19.0663  21.8965

          k = 0.6667 0.0000 0.3050 (   819 PWs)   bands (ev):

     9.7955  11.3946  13.5328  13.5328  13.9235  13.9235  14.4221  14.4222
    16.5505  16.5505  16.8900  17.7042  17.7042  18.8670  18.9844  21.4568

          k = 0.6667 0.0000 0.2541 (   819 PWs)   bands (ev):

     9.7003  11.5393  13.4774  13.4774  13.9132  13.9132  14.2146  14.2147
    16.6771  16.7394  16.7394  17.9089  17.9089  18.8717  18.8797  20.9931

          k = 0.6667 0.0000 0.2033 (   807 PWs)   bands (ev):

     9.6066  11.6936  13.4250  13.4251  13.8875  13.8875  14.0210  14.0210
    16.4609  17.0020  17.0020  18.0841  18.0841  18.7653  18.8768  20.5230

          k = 0.6667 0.0000 0.1525 (   813 PWs)   bands (ev):

     9.5237  11.8421  13.3807  13.3807  13.7810  13.7811  13.9337  13.9337
    16.2626  17.3185  17.3185  18.2222  18.2222  18.6565  18.8815  20.0558

          k = 0.6667 0.0000 0.1017 (   813 PWs)   bands (ev):

     9.4591  11.9679  13.3472  13.3472  13.6491  13.6491  13.9162  13.9162
    16.1014  17.6685  17.6685  18.3203  18.3203  18.5675  18.8853  19.6035

          k = 0.6667 0.0000 0.0508 (   810 PWs)   bands (ev):

     9.4181  12.0531  13.3262  13.3262  13.5622  13.5622  13.9095  13.9095
    15.9952  18.0158  18.0158  18.3773  18.3774  18.5094  19.1981  19.1982

          k = 0.6667 0.0000 0.0000 (   822 PWs)   bands (ev):

     9.4041  12.0834  13.3190  13.3191  13.5325  13.5325  13.9074  13.9075
    15.9580  18.2133  18.2133  18.3921  18.3921  18.4892  18.9856  18.9858

          k = 0.6111 0.0000 0.0000 (   814 PWs)   bands (ev):

     9.4435  12.0895  13.1292  13.3512  13.4271  13.7553  13.7977  13.9932
    15.8398  18.1724  18.2118  18.2455  18.2900  18.3606  18.8743  19.2475

          k = 0.5556 0.0000 0.0000 (   820 PWs)   bands (ev):

     9.5576  12.1145  12.7888  13.1992  13.4681  13.7875  13.9558  14.0376
    15.6142  17.9291  18.0722  18.1598  18.2001  18.2993  18.8489  19.5267

          k = 0.5000 0.0000 0.0000 (   816 PWs)   bands (ev):

     9.7291  12.1665  12.3403  13.0843  13.4013  13.7362  13.9359  14.3772
    15.4839  17.6671  17.9114  18.0276  18.1573  18.2135  18.8418  19.4671

          k = 0.4444 0.0000 0.0000 (   808 PWs)   bands (ev):

     9.9100  11.8757  12.2511  13.0118  13.3256  13.3817  14.1586  14.7722
    15.4849  17.4228  17.6940  17.8089  18.0780  18.1321  18.8636  19.2531

          k = 0.3889 0.0000 0.0000 (   810 PWs)   bands (ev):

     9.9734  11.5686  12.3710  12.9852  12.9862  13.2855  14.4219  15.2206
    15.5479  17.1915  17.4277  17.5206  17.8591  18.0879  18.9054  18.9959

          k = 0.3333 0.0000 0.0000 (   810 PWs)   bands (ev):

     9.7670  11.5962  12.5263  12.6179  13.0053  13.2967  14.7147  15.6163
    15.7198  16.9827  17.1234  17.1845  17.5377  17.9993  18.7540  18.9560

          k = 0.2778 0.0000 0.0000 (   816 PWs)   bands (ev):

     9.3815  11.7993  12.3942  12.7145  13.0706  13.3672  15.0271  15.6548
    16.2625  16.7982  16.8099  16.8215  17.1327  17.8556  18.5340  19.0073

          k = 0.2222 0.0000 0.0000 (   818 PWs)   bands (ev):

     8.9770  11.7320  12.6241  12.9291  13.1760  13.5001  15.3416  15.6386
    16.4285  16.4521  16.6847  16.6899  16.8833  17.6609  18.3182  19.0544

          k = 0.1667 0.0000 0.0000 (   808 PWs)   bands (ev):

     8.6274  11.5237  13.1108  13.1584  13.3109  13.6948  15.5523  15.5983
    16.0992  16.1008  16.2916  16.6060  17.4362  17.5080  18.0936  19.0939

          k = 0.1111 0.0000 0.0000 (   812 PWs)   bands (ev):

     8.3638  11.3485  13.3801  13.4555  13.6402  13.9448  15.3889  15.5252
    15.7921  15.7998  16.2181  16.5566  17.2231  17.8640  18.1645  19.1236

          k = 0.0556 0.0000 0.0000 (   807 PWs)   bands (ev):

     8.2009  11.2376  13.5544  13.5753  14.1331  14.2279  15.1508  15.1808
    15.5722  15.5760  16.4052  16.5203  17.0747  17.6612  18.7966  19.1419

          k = 0.0000 0.0000 0.0000 (   811 PWs)   bands (ev):

     8.1458  11.1999  13.6236  13.6237  14.4119  14.4119  14.9635  14.9635
    15.4900  15.4900  16.5042  16.5042  17.0237  17.5696  19.1481  19.1481

     the Fermi energy is    17.5789 ev

!    total energy              =    -166.91094809 Ry
     Harris-Foulkes estimate   =    -166.91094813 Ry
     estimated scf accuracy    <       0.00000005 Ry

     The total energy is the sum of the following terms:

     one-electron contribution =      24.53878351 Ry
     hartree contribution      =      21.65962675 Ry
     xc contribution           =     -80.04095406 Ry
     ewald contribution        =    -133.04937307 Ry
     smearing contrib. (-TS)   =      -0.01903122 Ry

     convergence has been achieved in  20 iterations

     Forces acting on atoms (Ry/au):

     atom    1 type  1   force =     0.00000000    0.00000000   -0.00000000
     atom    2 type  2   force =     0.00000000    0.00000000    0.00000000
     atom    3 type  2   force =    -0.00000000    0.00000000   -0.00000000

     Total force =     0.000000     Total SCF correction =     0.000000


     entering subroutine stress ...

          total   stress  (Ry/bohr**3)                   (kbar)     P=  885.55
   0.00808950  -0.00000000   0.00000000       1190.01     -0.00      0.00
  -0.00000000   0.00808950   0.00000000         -0.00   1190.01      0.00
   0.00000000   0.00000000   0.00188050          0.00      0.00    276.63


     Writing output data file Mgb2.save

     init_run     :      5.94s CPU      2.56s WALL (       1 calls)
     electrons    :    244.80s CPU     90.28s WALL (       1 calls)
     forces       :      0.28s CPU      0.28s WALL (       1 calls)
     stress       :     11.06s CPU      3.30s WALL (       1 calls)

     Called by init_run:
     wfcinit      :      4.54s CPU      1.48s WALL (       1 calls)
     potinit      :      0.03s CPU      0.03s WALL (       1 calls)

     Called by electrons:
     c_bands      :    226.94s CPU     79.85s WALL (      20 calls)
     sum_band     :     14.15s CPU      9.11s WALL (      20 calls)
     v_of_rho     :      0.93s CPU      0.34s WALL (      21 calls)
     newd         :      2.60s CPU      0.96s WALL (      21 calls)
     mix_rho      :      0.17s CPU      0.06s WALL (      20 calls)

     Called by c_bands:
     init_us_2    :      4.15s CPU      1.80s WALL (    2580 calls)
     cegterg      :    214.24s CPU     75.71s WALL (    1200 calls)

     Called by sum_band:
     sum_band:bec :      0.03s CPU      0.02s WALL (    1200 calls)
     addusdens    :      2.93s CPU      1.00s WALL (      20 calls)

     Called by *egterg:
     h_psi        :    152.72s CPU     51.17s WALL (    3775 calls)
     s_psi        :      5.74s CPU      1.97s WALL (    3775 calls)
     g_psi        :      0.54s CPU      0.18s WALL (    2515 calls)
     cdiaghg      :     44.45s CPU     18.76s WALL (    3715 calls)

     Called by h_psi:
     h_psi:pot    :    152.13s CPU     50.97s WALL (    3775 calls)
     h_psi:calbec :      6.08s CPU      2.11s WALL (    3775 calls)
     vloc_psi     :    139.73s CPU     46.69s WALL (    3775 calls)
     add_vuspsi   :      6.24s CPU      2.15s WALL (    3775 calls)

     General routines
     calbec       :      6.95s CPU      2.76s WALL (    5275 calls)
     fft          :      0.45s CPU      0.18s WALL (     297 calls)
     fftw         :    139.74s CPU     49.83s WALL (  110684 calls)
     davcio       :      0.00s CPU      0.01s WALL (      60 calls)

     Parallel routines
     fft_scatter  :     10.64s CPU      4.07s WALL (  110981 calls)

     PWSCF        :  4m22.35s CPU     1m36.76s WALL


   This run was terminated on:  15:33:49  31Oct2019            

=------------------------------------------------------------------------------=
   JOB DONE.
=------------------------------------------------------------------------------=


