
     Program PWSCF v.6.6 starts on 29May2026 at 16:53:54 

     This program is part of the open-source Quantum ESPRESSO suite
     for quantum simulation of materials; please cite
         "P. Giannozzi et al., J. Phys.:Condens. Matter 21 395502 (2009);
         "P. Giannozzi et al., J. Phys.:Condens. Matter 29 465901 (2017);
          URL http://www.quantum-espresso.org", 
     in publications or presentations arising from this work. More details at
     http://www.quantum-espresso.org/quote

     Parallel version (MPI), running on     1 processors

     MPI processes distributed on     1 nodes
     Fft bands division:     nmany     =       1
     Waiting for input...
     Reading input from standard input

     Current dimensions of program PWSCF are:
     Max number of different atomic species (ntypx) = 10
     Max number of k-points (npk) =  40000
     Max angular momentum in pseudopotentials (lmaxx) =  3
     file Fe.pbe-nd-rrkjus.UPF: wavefunction(s)  4S renormalized
     file Fe.pbe-nd-rrkjus.UPF: wavefunction(s)  4S renormalized

     Subspace diagonalization in iterative solution of the eigenvalue problem:
     a serial algorithm will be used


     G-vector sticks info
     --------------------
     sticks:   dense  smooth     PW     G-vecs:    dense   smooth      PW
     Sum         379     379    127                 6559     6559    1365



     bravais-lattice index     =            4
     lattice parameter (alat)  =       5.8600  a.u.
     unit-cell volume          =     190.4775 (a.u.)^3
     number of atoms/cell      =            3
     number of atomic types    =            2
     number of electrons       =        24.00
     number of Kohn-Sham states=           16
     kinetic-energy cutoff     =      40.0000  Ry
     charge density cutoff     =     160.0000  Ry
     convergence threshold     =      1.0E-07
     mixing beta               =       0.7000
     number of iterations used =            8  plain     mixing
     Exchange-correlation=  SLA  PW   PBE  PBE
                           (   1   4   3   4   0   0   0)

     celldm(1)=   5.860000  celldm(2)=   0.000000  celldm(3)=   1.093000
     celldm(4)=   0.000000  celldm(5)=   0.000000  celldm(6)=   0.000000

     crystal axes: (cart. coord. in units of alat)
               a(1) = (   1.000000   0.000000   0.000000 )  
               a(2) = (  -0.500000   0.866025   0.000000 )  
               a(3) = (   0.000000   0.000000   1.093000 )  

     reciprocal axes: (cart. coord. in units 2 pi/alat)
               b(1) = (  1.000000  0.577350 -0.000000 )  
               b(2) = (  0.000000  1.154701  0.000000 )  
               b(3) = (  0.000000 -0.000000  0.914913 )  


     PseudoPot. # 1 for Fe read from file:
     ./Fe.pbe-nd-rrkjus.UPF
     MD5 check sum: 398036227a04b607635f6f5e8dfd8242
     Pseudo is Ultrasoft + core correction, Zval =  8.0
     Generated by new atomic code, or converted to UPF format
     Using radial grid of  957 points,  6 beta functions with: 
                l(1) =   0
                l(2) =   0
                l(3) =   1
                l(4) =   1
                l(5) =   2
                l(6) =   2
     Q(r) pseudized with 0 coefficients 


     PseudoPot. # 2 for Fe read from file:
     ./Fe.pbe-nd-rrkjus.UPF
     MD5 check sum: 398036227a04b607635f6f5e8dfd8242
     Pseudo is Ultrasoft + core correction, Zval =  8.0
     Generated by new atomic code, or converted to UPF format
     Using radial grid of  957 points,  6 beta functions with: 
                l(1) =   0
                l(2) =   0
                l(3) =   1
                l(4) =   1
                l(5) =   2
                l(6) =   2
     Q(r) pseudized with 0 coefficients 


     atomic species   valence    mass     pseudopotential
        Mg             8.00    24.30500     Fe( 1.00)
        B              8.00    10.81000     Fe( 1.00)

     24 Sym. Ops., with inversion, found



   Cartesian axes

     site n.     atom                  positions (alat units)
         1           Mg  tau(   1) = (   0.0000000   0.0000000   0.0000000  )
         2           B   tau(   2) = (   0.0000000   0.5773497   0.5465000  )
         3           B   tau(   3) = (   0.4999995   0.2886748   0.5465000  )

     number of k points=   512  Gaussian smearing, width (Ry)=  0.0250

     Number of k-points >= 100: set verbosity='high' to print them.

     Dense  grid:     6559 G-vectors     FFT dimensions: (  24,  24,  25)

     Estimated max dynamical RAM per process >     128.68 MB

     Check: negative core charge=   -0.000013

     Initial potential from superposition of free atoms

     starting charge   23.99810, renormalised to   24.00000
     Starting wfcs are   18 randomized atomic wfcs

     total cpu time spent up to now is        5.7 secs

     Self-consistent Calculation

     iteration #  1     ecut=    40.00 Ry     beta= 0.70
     Davidson diagonalization with overlap
     ethr =  1.00E-02,  avg # of iterations =  2.6

     total cpu time spent up to now is       19.7 secs

     total energy              =    -165.99122449 Ry
     estimated scf accuracy    <       1.40781863 Ry

     iteration #  2     ecut=    40.00 Ry     beta= 0.70
     Davidson diagonalization with overlap
     ethr =  5.87E-03,  avg # of iterations =  4.3

     total cpu time spent up to now is       38.2 secs

     total energy              =    -165.97198359 Ry
     estimated scf accuracy    <      19.72573004 Ry

     iteration #  3     ecut=    40.00 Ry     beta= 0.70
     Davidson diagonalization with overlap
     ethr =  5.87E-03,  avg # of iterations =  3.6

     total cpu time spent up to now is       54.5 secs

     total energy              =    -166.76190420 Ry
     estimated scf accuracy    <       1.32828881 Ry

     iteration #  4     ecut=    40.00 Ry     beta= 0.70
     Davidson diagonalization with overlap
     ethr =  5.53E-03,  avg # of iterations =  1.9

     total cpu time spent up to now is       66.9 secs

     total energy              =    -166.76818144 Ry
     estimated scf accuracy    <       2.31952781 Ry

     iteration #  5     ecut=    40.00 Ry     beta= 0.70
     Davidson diagonalization with overlap
     ethr =  5.53E-03,  avg # of iterations =  1.0

     total cpu time spent up to now is       78.9 secs

     total energy              =    -166.98221019 Ry
     estimated scf accuracy    <       0.65317781 Ry

     iteration #  6     ecut=    40.00 Ry     beta= 0.70
     Davidson diagonalization with overlap
     ethr =  2.72E-03,  avg # of iterations =  1.0

     total cpu time spent up to now is       90.4 secs

     total energy              =    -166.98431168 Ry
     estimated scf accuracy    <       0.20457120 Ry

     iteration #  7     ecut=    40.00 Ry     beta= 0.70
     Davidson diagonalization with overlap
     ethr =  8.52E-04,  avg # of iterations =  1.0

     total cpu time spent up to now is      101.6 secs

     total energy              =    -166.97643677 Ry
     estimated scf accuracy    <       0.11291103 Ry

     iteration #  8     ecut=    40.00 Ry     beta= 0.70
     Davidson diagonalization with overlap
     ethr =  4.70E-04,  avg # of iterations =  1.1

     total cpu time spent up to now is      112.7 secs

     total energy              =    -166.98143016 Ry
     estimated scf accuracy    <       0.00012830 Ry

     iteration #  9     ecut=    40.00 Ry     beta= 0.70
     Davidson diagonalization with overlap
     c_bands:  1 eigenvalues not converged
     c_bands:  2 eigenvalues not converged
     c_bands:  1 eigenvalues not converged
     c_bands:  2 eigenvalues not converged
     c_bands:  1 eigenvalues not converged
     c_bands:  1 eigenvalues not converged
     c_bands:  1 eigenvalues not converged
     c_bands:  1 eigenvalues not converged
     c_bands:  1 eigenvalues not converged
     c_bands:  1 eigenvalues not converged
     c_bands:  1 eigenvalues not converged
     c_bands:  1 eigenvalues not converged
     c_bands:  1 eigenvalues not converged
     c_bands:  1 eigenvalues not converged
     c_bands:  1 eigenvalues not converged
     c_bands:  1 eigenvalues not converged
     c_bands:  1 eigenvalues not converged
     c_bands:  1 eigenvalues not converged
     c_bands:  1 eigenvalues not converged
     c_bands:  1 eigenvalues not converged
     c_bands:  1 eigenvalues not converged
     c_bands:  1 eigenvalues not converged
     c_bands:  1 eigenvalues not converged
     c_bands:  1 eigenvalues not converged
     ethr =  5.35E-07,  avg # of iterations = 10.9

     total cpu time spent up to now is      154.6 secs

     total energy              =    -166.98231944 Ry
     estimated scf accuracy    <       0.00011635 Ry

     iteration # 10     ecut=    40.00 Ry     beta= 0.70
     Davidson diagonalization with overlap
     ethr =  4.85E-07,  avg # of iterations =  1.6

     total cpu time spent up to now is      166.2 secs

     total energy              =    -166.98232109 Ry
     estimated scf accuracy    <       0.00005672 Ry

     iteration # 11     ecut=    40.00 Ry     beta= 0.70
     Davidson diagonalization with overlap
     ethr =  2.36E-07,  avg # of iterations =  1.9

     total cpu time spent up to now is      178.3 secs

     total energy              =    -166.98230580 Ry
     estimated scf accuracy    <       0.00018136 Ry

     iteration # 12     ecut=    40.00 Ry     beta= 0.70
     Davidson diagonalization with overlap
     ethr =  2.36E-07,  avg # of iterations =  1.5

     total cpu time spent up to now is      191.5 secs

     total energy              =    -166.98231832 Ry
     estimated scf accuracy    <       0.00003067 Ry

     iteration # 13     ecut=    40.00 Ry     beta= 0.70
     Davidson diagonalization with overlap
     ethr =  1.28E-07,  avg # of iterations =  1.1

     total cpu time spent up to now is      204.1 secs

     total energy              =    -166.98232158 Ry
     estimated scf accuracy    <       0.00000454 Ry

     iteration # 14     ecut=    40.00 Ry     beta= 0.70
     Davidson diagonalization with overlap
     ethr =  1.89E-08,  avg # of iterations =  4.8

     total cpu time spent up to now is      223.0 secs

     total energy              =    -166.98232350 Ry
     estimated scf accuracy    <       0.00000341 Ry

     iteration # 15     ecut=    40.00 Ry     beta= 0.70
     Davidson diagonalization with overlap
     ethr =  1.42E-08,  avg # of iterations =  1.1

     total cpu time spent up to now is      234.7 secs

     total energy              =    -166.98232350 Ry
     estimated scf accuracy    <       0.00000161 Ry

     iteration # 16     ecut=    40.00 Ry     beta= 0.70
     Davidson diagonalization with overlap
     ethr =  6.69E-09,  avg # of iterations =  1.9

     total cpu time spent up to now is      246.7 secs

     End of self-consistent calculation

     Number of k-points >= 100: set verbosity='high' to print the bands.

     the Fermi energy is    17.5500 ev

!    total energy              =    -166.98232362 Ry
     estimated scf accuracy    <       0.00000003 Ry
     smearing contrib. (-TS)   =      -0.01832580 Ry
     internal energy E=F+TS    =    -166.96399782 Ry

     The total energy is F=E-TS. E is the sum of the following terms:
     one-electron contribution =      24.62177988 Ry
     hartree contribution      =      21.39917251 Ry
     xc contribution           =     -79.93557714 Ry
     ewald contribution        =    -133.04937307 Ry

     convergence has been achieved in  16 iterations

     Forces acting on atoms (cartesian axes, Ry/au):

     atom    1 type  1   force =     0.00000000    0.00000000    0.00000000
     atom    2 type  2   force =    -0.00000000   -0.00000000   -0.00000000
     atom    3 type  2   force =     0.00000000    0.00000000   -0.00000000

     Total force =     0.000000     Total SCF correction =     0.000000


     Computing stress (Cartesian axis) and pressure

          total   stress  (Ry/bohr**3)                   (kbar)     P=      876.27
   0.00812359  -0.00000000   0.00000000         1195.02       -0.00        0.00
  -0.00000000   0.00812359  -0.00000000           -0.00     1195.02       -0.00
  -0.00000000   0.00000000   0.00162310           -0.00        0.00      238.77


     Writing output data file temp/Mgb2.save/

     init_run     :      6.14s CPU      5.59s WALL (       1 calls)
     electrons    :    272.27s CPU    241.00s WALL (       1 calls)
     forces       :      2.01s CPU      1.48s WALL (       1 calls)
     stress       :      5.70s CPU      5.69s WALL (       1 calls)

     Called by init_run:
     wfcinit      :      5.57s CPU      5.00s WALL (       1 calls)
     potinit      :      0.01s CPU      0.02s WALL (       1 calls)
     hinit0       :      0.48s CPU      0.49s WALL (       1 calls)

     Called by electrons:
     c_bands      :    237.82s CPU    208.03s WALL (      16 calls)
     sum_band     :     33.83s CPU     32.17s WALL (      16 calls)
     v_of_rho     :      0.13s CPU      0.15s WALL (      17 calls)
     newd         :      0.50s CPU      0.60s WALL (      17 calls)
     mix_rho      :      0.03s CPU      0.07s WALL (      16 calls)

     Called by c_bands:
     init_us_2    :      6.08s CPU      6.20s WALL (   17920 calls)
     cegterg      :    217.59s CPU    187.34s WALL (    8192 calls)

     Called by *egterg:
     cdiaghg      :     10.09s CPU     10.27s WALL (   29225 calls)
     h_psi        :    157.57s CPU    145.55s WALL (   29737 calls)
     s_psi        :     16.38s CPU      7.21s WALL (   29737 calls)
     g_psi        :      0.86s CPU      0.89s WALL (   21033 calls)

     Called by h_psi:
     h_psi:calbec :     15.81s CPU      9.89s WALL (   29737 calls)
     vloc_psi     :    124.15s CPU    127.46s WALL (   29737 calls)
     add_vuspsi   :     16.91s CPU      7.33s WALL (   29737 calls)

     General routines
     calbec       :     22.96s CPU     14.13s WALL (   40489 calls)
     fft          :      0.05s CPU      0.05s WALL (     212 calls)
     ffts         :      0.00s CPU      0.00s WALL (      16 calls)
     fftw         :    129.22s CPU    131.91s WALL (  849970 calls)

     Parallel routines

     PWSCF        :   4m46.42s CPU   4m14.62s WALL


   This run was terminated on:  16:58: 9  29May2026            

=------------------------------------------------------------------------------=
   JOB DONE.
=------------------------------------------------------------------------------=
